(set-info :smt-lib-version 2.6)
(set-logic UF)
(set-info :source |
Generated by: Andrew Reynolds
Generated on: 2017-04-28
Generator: Sledgehammer, converted to v2.6 by CVC4
Application: Verfication goals in Isabelle
Target solver: CVC4, Z3
Publications: "A Decision Procedure for (Co)Datatypes" by Andrew Reynolds and Jasmin Blanchette, CADE 2015.
|)
(set-info :license "https://creativecommons.org/licenses/by/4.0/")
(set-info :category "industrial")
(set-info :status unsat)


(declare-sort Nat$ 0)
(declare-sort Enat_bool_fun$ 0)
(declare-sort Enat_enat_fun$ 0)
(declare-sort Enat_enat_bool_fun_fun$ 0)
(declare-sort Enat_enat_enat_fun_fun$ 0)
(declare-sort Nat_option$ 0)
(declare-sort Enat$ 0)
(declare-fun none$ () Nat_option$)
(declare-fun the$ (Nat_option$) Nat$)
(declare-fun some$ (Nat$) Nat_option$)
(declare-fun rep_enat$ (Enat$) Nat_option$)
(declare-fun abs_enat$ (Nat_option$) Enat$)
(declare-fun n$ () Enat$)
(declare-fun inf$ () Enat_enat_enat_fun_fun$)
(declare-fun min$ () Enat_enat_enat_fun_fun$)
(declare-fun top$ () Enat$)
(declare-fun less$ () Enat_enat_bool_fun_fun$)
(declare-fun plus$ () Enat_enat_enat_fun_fun$)
(declare-fun monoid$ (Enat_enat_enat_fun_fun$ Enat$) Bool)
(declare-fun fun_app$ (Enat_enat_fun$ Enat$) Enat$)
(declare-fun less_eq$ () Enat_enat_bool_fun_fun$)
(declare-fun fun_app$a (Enat_enat_enat_fun_fun$ Enat$) Enat_enat_fun$)
(declare-fun fun_app$b (Enat_bool_fun$ Enat$) Bool)
(declare-fun fun_app$c (Enat_enat_bool_fun_fun$ Enat$) Enat_bool_fun$)
(declare-fun infinity$ () Enat$)
(declare-fun semigroup$ (Enat_enat_enat_fun_fun$) Bool)
(declare-fun comm_monoid$ (Enat_enat_enat_fun_fun$ Enat$) Bool)
(declare-fun semilattice$ (Enat_enat_enat_fun_fun$) Bool)
(declare-fun monoid_axioms$ (Enat_enat_enat_fun_fun$ Enat$) Bool)
(declare-fun abel_semigroup$ (Enat_enat_enat_fun_fun$) Bool)
(declare-fun semilattice_neutr$ (Enat_enat_enat_fun_fun$ Enat$) Bool)
(declare-fun comm_monoid_axioms$ (Enat_enat_enat_fun_fun$ Enat$) Bool)
(declare-fun semilattice_axioms$ (Enat_enat_enat_fun_fun$) Bool)
(declare-fun abel_semigroup_axioms$ (Enat_enat_enat_fun_fun$) Bool)
(declare-fun semilattice_neutr_order$ (Enat_enat_enat_fun_fun$ Enat$ Enat_enat_bool_fun_fun$ Enat_enat_bool_fun_fun$) Bool)
(assert (not (= (fun_app$ (fun_app$a inf$ infinity$) n$) n$)))
(assert (forall ((?v0 Enat$) (?v1 Enat$)) (= (fun_app$ (fun_app$a inf$ (fun_app$ (fun_app$a inf$ ?v0) ?v1)) ?v1) (fun_app$ (fun_app$a inf$ ?v0) ?v1)) ))
(assert (forall ((?v0 Enat$) (?v1 Enat$)) (= (fun_app$ (fun_app$a inf$ (fun_app$ (fun_app$a inf$ ?v0) ?v1)) ?v1) (fun_app$ (fun_app$a inf$ ?v0) ?v1)) ))
(assert (forall ((?v0 Enat$) (?v1 Enat$)) (= (fun_app$ (fun_app$a inf$ ?v0) (fun_app$ (fun_app$a inf$ ?v0) ?v1)) (fun_app$ (fun_app$a inf$ ?v0) ?v1)) ))
(assert (forall ((?v0 Enat$) (?v1 Enat$)) (= (fun_app$ (fun_app$a inf$ ?v0) (fun_app$ (fun_app$a inf$ ?v0) ?v1)) (fun_app$ (fun_app$a inf$ ?v0) ?v1)) ))
(assert (forall ((?v0 Enat$)) (! (= (fun_app$ (fun_app$a inf$ ?v0) ?v0) ?v0) :pattern ((fun_app$a inf$ ?v0)))))
(assert (forall ((?v0 Enat$)) (! (= (fun_app$ (fun_app$a inf$ ?v0) ?v0) ?v0) :pattern ((fun_app$a inf$ ?v0)))))
(assert (forall ((?v0 Enat$) (?v1 Enat$) (?v2 Enat$)) (= (fun_app$ (fun_app$a inf$ (fun_app$ (fun_app$a inf$ ?v0) ?v1)) ?v2) (fun_app$ (fun_app$a inf$ ?v0) (fun_app$ (fun_app$a inf$ ?v1) ?v2))) ))
(assert (forall ((?v0 Enat$) (?v1 Enat$) (?v2 Enat$)) (= (fun_app$ (fun_app$a inf$ (fun_app$ (fun_app$a inf$ ?v0) ?v1)) ?v2) (fun_app$ (fun_app$a inf$ ?v0) (fun_app$ (fun_app$a inf$ ?v1) ?v2))) ))
(assert (forall ((?v0 Enat$) (?v1 Enat$) (?v2 Enat$)) (= (fun_app$ (fun_app$a inf$ (fun_app$ (fun_app$a inf$ ?v0) ?v1)) ?v2) (fun_app$ (fun_app$a inf$ ?v0) (fun_app$ (fun_app$a inf$ ?v1) ?v2))) ))
(assert (forall ((?v0 Enat$) (?v1 Enat$) (?v2 Enat$)) (= (fun_app$ (fun_app$a inf$ ?v0) (fun_app$ (fun_app$a inf$ ?v1) ?v2)) (fun_app$ (fun_app$a inf$ ?v1) (fun_app$ (fun_app$a inf$ ?v0) ?v2))) ))
(assert (forall ((?v0 Enat$) (?v1 Enat$) (?v2 Enat$)) (= (fun_app$ (fun_app$a inf$ ?v0) (fun_app$ (fun_app$a inf$ ?v1) ?v2)) (fun_app$ (fun_app$a inf$ ?v1) (fun_app$ (fun_app$a inf$ ?v0) ?v2))) ))
(assert (forall ((?v0 Enat$) (?v1 Enat$)) (= (fun_app$ (fun_app$a inf$ ?v0) ?v1) (fun_app$ (fun_app$a inf$ ?v1) ?v0)) ))
(assert (forall ((?v0 Enat$) (?v1 Enat$)) (= (fun_app$ (fun_app$a inf$ ?v0) ?v1) (fun_app$ (fun_app$a inf$ ?v1) ?v0)) ))
(assert (forall ((?v0 Enat$) (?v1 Enat$)) (= (fun_app$ (fun_app$a inf$ ?v0) ?v1) (fun_app$ (fun_app$a inf$ ?v1) ?v0)) ))
(assert (forall ((?v0 Enat$) (?v1 Enat$)) (= (fun_app$ (fun_app$a inf$ ?v0) (fun_app$ (fun_app$a inf$ ?v0) ?v1)) (fun_app$ (fun_app$a inf$ ?v0) ?v1)) ))
(assert (forall ((?v0 Enat$) (?v1 Enat$) (?v2 Enat$)) (= (fun_app$ (fun_app$a inf$ ?v0) (fun_app$ (fun_app$a inf$ ?v1) ?v2)) (fun_app$ (fun_app$a inf$ ?v1) (fun_app$ (fun_app$a inf$ ?v0) ?v2))) ))
(assert (= inf$ min$))
(assert (semigroup$ inf$))
(assert (abel_semigroup$ inf$))
(assert (semilattice$ inf$))
(assert (forall ((?v0 Enat$) (?v1 Enat$) (?v2 Enat$)) (= (fun_app$b (fun_app$c less_eq$ ?v0) (fun_app$ (fun_app$a inf$ ?v1) ?v2)) (and (fun_app$b (fun_app$c less_eq$ ?v0) ?v1) (fun_app$b (fun_app$c less_eq$ ?v0) ?v2))) ))
(assert (forall ((?v0 Enat$) (?v1 Enat$) (?v2 Enat$)) (= (fun_app$b (fun_app$c less_eq$ ?v0) (fun_app$ (fun_app$a inf$ ?v1) ?v2)) (and (fun_app$b (fun_app$c less_eq$ ?v0) ?v1) (fun_app$b (fun_app$c less_eq$ ?v0) ?v2))) ))
(assert (forall ((?v0 Enat$)) (= (fun_app$ (fun_app$a inf$ top$) ?v0) ?v0) ))
(assert (forall ((?v0 Enat$)) (= (fun_app$ (fun_app$a inf$ ?v0) top$) ?v0) ))
(assert (forall ((?v0 Enat$) (?v1 Enat$)) (= (= (fun_app$ (fun_app$a inf$ ?v0) ?v1) top$) (and (= ?v0 top$) (= ?v1 top$))) ))
(assert (forall ((?v0 Enat$) (?v1 Enat$)) (= (fun_app$ (fun_app$a min$ (fun_app$ (fun_app$a min$ ?v0) ?v1)) ?v1) (fun_app$ (fun_app$a min$ ?v0) ?v1)) ))
(assert (forall ((?v0 Enat$) (?v1 Enat$)) (= (fun_app$ (fun_app$a min$ ?v0) (fun_app$ (fun_app$a min$ ?v0) ?v1)) (fun_app$ (fun_app$a min$ ?v0) ?v1)) ))
(assert (forall ((?v0 Enat$)) (= (fun_app$ (fun_app$a min$ ?v0) ?v0) ?v0) ))
(assert (forall ((?v0 Enat$)) (! (= (fun_app$b (fun_app$c less_eq$ infinity$) ?v0) (= ?v0 infinity$)) :pattern ((fun_app$b (fun_app$c less_eq$ infinity$) ?v0)))))
(assert (forall ((?v0 Enat$)) (! (= (fun_app$b (fun_app$c less_eq$ ?v0) infinity$) true) :pattern ((fun_app$c less_eq$ ?v0)))))
(assert (forall ((?v0 Enat$) (?v1 Enat$) (?v2 Enat$)) (= (fun_app$b (fun_app$c less_eq$ ?v0) (fun_app$ (fun_app$a min$ ?v1) ?v2)) (and (fun_app$b (fun_app$c less_eq$ ?v0) ?v1) (fun_app$b (fun_app$c less_eq$ ?v0) ?v2))) ))
(assert (forall ((?v0 Enat$)) (= (fun_app$ (fun_app$a min$ ?v0) infinity$) ?v0) ))
(assert (forall ((?v0 Enat$)) (= (fun_app$ (fun_app$a min$ infinity$) ?v0) ?v0) ))
(assert (forall ((?v0 Enat$) (?v1 Enat$) (?v2 Enat$)) (= (fun_app$ (fun_app$a min$ (fun_app$ (fun_app$a min$ ?v0) ?v1)) ?v2) (fun_app$ (fun_app$a min$ ?v0) (fun_app$ (fun_app$a min$ ?v1) ?v2))) ))
(assert (forall ((?v0 Enat$) (?v1 Enat$) (?v2 Enat$)) (= (fun_app$ (fun_app$a min$ ?v0) (fun_app$ (fun_app$a min$ ?v1) ?v2)) (fun_app$ (fun_app$a min$ ?v1) (fun_app$ (fun_app$a min$ ?v0) ?v2))) ))
(assert (forall ((?v0 Enat$) (?v1 Enat$)) (= (fun_app$ (fun_app$a min$ ?v0) ?v1) (fun_app$ (fun_app$a min$ ?v1) ?v0)) ))
(assert (forall ((?v0 Enat$) (?v1 Enat$) (?v2 Enat$)) (= (fun_app$b (fun_app$c less_eq$ (fun_app$ (fun_app$a min$ ?v0) ?v1)) ?v2) (or (fun_app$b (fun_app$c less_eq$ ?v0) ?v2) (fun_app$b (fun_app$c less_eq$ ?v1) ?v2))) ))
(assert (forall ((?v0 Enat$) (?v1 Enat$)) (! (= (fun_app$b (fun_app$c less_eq$ ?v0) ?v1) (= (fun_app$ (fun_app$a min$ ?v1) ?v0) ?v0)) :pattern ((fun_app$b (fun_app$c less_eq$ ?v0) ?v1)))))
(assert (forall ((?v0 Enat$) (?v1 Enat$)) (! (= (fun_app$b (fun_app$c less_eq$ ?v0) ?v1) (= (fun_app$ (fun_app$a min$ ?v0) ?v1) ?v0)) :pattern ((fun_app$b (fun_app$c less_eq$ ?v0) ?v1)))))
(assert (forall ((?v0 Enat$) (?v1 Enat$)) (! (= (fun_app$b (fun_app$c less_eq$ ?v0) ?v1) (= ?v0 (fun_app$ (fun_app$a min$ ?v0) ?v1))) :pattern ((fun_app$b (fun_app$c less_eq$ ?v0) ?v1)))))
(assert (forall ((?v0 Enat$) (?v1 Enat$)) (=> (= ?v0 (fun_app$ (fun_app$a min$ ?v0) ?v1)) (fun_app$b (fun_app$c less_eq$ ?v0) ?v1)) ))
(assert (forall ((?v0 Enat$) (?v1 Enat$) (?v2 Enat$)) (=> (and (fun_app$b (fun_app$c less_eq$ ?v0) (fun_app$ (fun_app$a min$ ?v1) ?v2)) (=> (and (fun_app$b (fun_app$c less_eq$ ?v0) ?v1) (fun_app$b (fun_app$c less_eq$ ?v0) ?v2)) false)) false) ))
(assert (forall ((?v0 Enat$) (?v1 Enat$)) (=> (and (fun_app$b (fun_app$c less_eq$ ?v0) ?v1) (=> (= ?v0 (fun_app$ (fun_app$a min$ ?v0) ?v1)) false)) false) ))
(assert (forall ((?v0 Enat$) (?v1 Enat$) (?v2 Enat$) (?v3 Enat$)) (=> (and (fun_app$b (fun_app$c less_eq$ ?v0) ?v1) (fun_app$b (fun_app$c less_eq$ ?v2) ?v3)) (fun_app$b (fun_app$c less_eq$ (fun_app$ (fun_app$a min$ ?v0) ?v2)) (fun_app$ (fun_app$a min$ ?v1) ?v3))) ))
(assert (forall ((?v0 Enat$) (?v1 Enat$) (?v2 Enat$)) (=> (and (fun_app$b (fun_app$c less_eq$ ?v0) ?v1) (fun_app$b (fun_app$c less_eq$ ?v0) ?v2)) (fun_app$b (fun_app$c less_eq$ ?v0) (fun_app$ (fun_app$a min$ ?v1) ?v2))) ))
(assert (forall ((?v0 Enat$) (?v1 Enat$)) (=> (fun_app$b (fun_app$c less_eq$ ?v0) ?v1) (= (fun_app$ (fun_app$a min$ ?v1) ?v0) ?v0)) ))
(assert (forall ((?v0 Enat$) (?v1 Enat$)) (=> (fun_app$b (fun_app$c less_eq$ ?v0) ?v1) (= (fun_app$ (fun_app$a min$ ?v0) ?v1) ?v0)) ))
(assert (forall ((?v0 Enat$) (?v1 Enat$) (?v2 Enat$)) (=> (fun_app$b (fun_app$c less_eq$ ?v0) ?v1) (fun_app$b (fun_app$c less_eq$ (fun_app$ (fun_app$a min$ ?v2) ?v0)) ?v1)) ))
(assert (forall ((?v0 Enat$) (?v1 Enat$) (?v2 Enat$)) (=> (fun_app$b (fun_app$c less_eq$ ?v0) ?v1) (fun_app$b (fun_app$c less_eq$ (fun_app$ (fun_app$a min$ ?v0) ?v2)) ?v1)) ))
(assert (forall ((?v0 Enat_enat_enat_fun_fun$) (?v1 Enat$) (?v2 Enat$)) (=> (semilattice$ ?v0) (= (fun_app$ (fun_app$a ?v0 (fun_app$ (fun_app$a ?v0 ?v1) ?v2)) ?v2) (fun_app$ (fun_app$a ?v0 ?v1) ?v2))) ))
(assert (forall ((?v0 Enat_enat_enat_fun_fun$) (?v1 Enat$) (?v2 Enat$)) (=> (semilattice$ ?v0) (= (fun_app$ (fun_app$a ?v0 ?v1) (fun_app$ (fun_app$a ?v0 ?v1) ?v2)) (fun_app$ (fun_app$a ?v0 ?v1) ?v2))) ))
(assert (forall ((?v0 Enat_enat_enat_fun_fun$) (?v1 Enat$)) (=> (semilattice$ ?v0) (= (fun_app$ (fun_app$a ?v0 ?v1) ?v1) ?v1)) ))
(assert (forall ((?v0 Enat_enat_enat_fun_fun$)) (=> (semilattice$ ?v0) (abel_semigroup$ ?v0)) ))
(assert (forall ((?v0 Enat$) (?v1 Enat$)) (fun_app$b (fun_app$c less_eq$ (fun_app$ (fun_app$a min$ ?v0) ?v1)) ?v1) ))
(assert (forall ((?v0 Enat$) (?v1 Enat$)) (fun_app$b (fun_app$c less_eq$ (fun_app$ (fun_app$a min$ ?v0) ?v1)) ?v0) ))
(assert (semigroup$ min$))
(assert (semilattice$ min$))
(assert (abel_semigroup$ min$))
(assert (= top$ infinity$))
(assert (forall ((?v0 Enat$)) (fun_app$b (fun_app$c less_eq$ ?v0) infinity$) ))
(assert (= inf$ min$))
(assert (forall ((?v0 Enat$)) (= (fun_app$ (fun_app$a inf$ ?v0) top$) ?v0) ))
(assert (forall ((?v0 Enat$)) (= (fun_app$ (fun_app$a inf$ top$) ?v0) ?v0) ))
(assert (forall ((?v0 Enat$) (?v1 Enat$)) (! (= (fun_app$b (fun_app$c less_eq$ ?v0) ?v1) (= (fun_app$ (fun_app$a inf$ ?v1) ?v0) ?v0)) :pattern ((fun_app$b (fun_app$c less_eq$ ?v0) ?v1)))))
(assert (forall ((?v0 Enat$) (?v1 Enat$)) (! (= (fun_app$b (fun_app$c less_eq$ ?v0) ?v1) (= (fun_app$ (fun_app$a inf$ ?v0) ?v1) ?v0)) :pattern ((fun_app$b (fun_app$c less_eq$ ?v0) ?v1)))))
(assert (forall ((?v0 Enat$) (?v1 Enat$)) (! (= (fun_app$b (fun_app$c less_eq$ ?v0) ?v1) (= (fun_app$ (fun_app$a inf$ ?v0) ?v1) ?v0)) :pattern ((fun_app$b (fun_app$c less_eq$ ?v0) ?v1)))))
(assert (forall ((?v0 Enat$) (?v1 Enat$)) (! (= (fun_app$b (fun_app$c less_eq$ ?v0) ?v1) (= ?v0 (fun_app$ (fun_app$a inf$ ?v0) ?v1))) :pattern ((fun_app$b (fun_app$c less_eq$ ?v0) ?v1)))))
(assert (forall ((?v0 Enat_enat_enat_fun_fun$) (?v1 Enat$) (?v2 Enat$)) (=> (and (forall ((?v3 Enat$) (?v4 Enat$)) (fun_app$b (fun_app$c less_eq$ (fun_app$ (fun_app$a ?v0 ?v3) ?v4)) ?v3) ) (and (forall ((?v3 Enat$) (?v4 Enat$)) (fun_app$b (fun_app$c less_eq$ (fun_app$ (fun_app$a ?v0 ?v3) ?v4)) ?v4) ) (forall ((?v3 Enat$) (?v4 Enat$) (?v5 Enat$)) (=> (and (fun_app$b (fun_app$c less_eq$ ?v3) ?v4) (fun_app$b (fun_app$c less_eq$ ?v3) ?v5)) (fun_app$b (fun_app$c less_eq$ ?v3) (fun_app$ (fun_app$a ?v0 ?v4) ?v5))) ))) (= (fun_app$ (fun_app$a inf$ ?v1) ?v2) (fun_app$ (fun_app$a ?v0 ?v1) ?v2))) ))
(assert (forall ((?v0 Enat$) (?v1 Enat$)) (=> (= ?v0 (fun_app$ (fun_app$a inf$ ?v0) ?v1)) (fun_app$b (fun_app$c less_eq$ ?v0) ?v1)) ))
(assert (forall ((?v0 Enat$) (?v1 Enat$) (?v2 Enat$)) (=> (and (fun_app$b (fun_app$c less_eq$ ?v0) (fun_app$ (fun_app$a inf$ ?v1) ?v2)) (=> (and (fun_app$b (fun_app$c less_eq$ ?v0) ?v1) (fun_app$b (fun_app$c less_eq$ ?v0) ?v2)) false)) false) ))
(assert (forall ((?v0 Enat$) (?v1 Enat$) (?v2 Enat$)) (=> (and (fun_app$b (fun_app$c less_eq$ ?v0) (fun_app$ (fun_app$a inf$ ?v1) ?v2)) (=> (and (fun_app$b (fun_app$c less_eq$ ?v0) ?v1) (fun_app$b (fun_app$c less_eq$ ?v0) ?v2)) false)) false) ))
(assert (forall ((?v0 Enat$) (?v1 Enat$)) (=> (and (fun_app$b (fun_app$c less_eq$ ?v0) ?v1) (=> (= ?v0 (fun_app$ (fun_app$a inf$ ?v0) ?v1)) false)) false) ))
(assert (forall ((?v0 Enat$) (?v1 Enat$) (?v2 Enat$) (?v3 Enat$)) (=> (and (fun_app$b (fun_app$c less_eq$ ?v0) ?v1) (fun_app$b (fun_app$c less_eq$ ?v2) ?v3)) (fun_app$b (fun_app$c less_eq$ (fun_app$ (fun_app$a inf$ ?v0) ?v2)) (fun_app$ (fun_app$a inf$ ?v1) ?v3))) ))
(assert (forall ((?v0 Enat$) (?v1 Enat$) (?v2 Enat$)) (=> (and (fun_app$b (fun_app$c less_eq$ ?v0) ?v1) (fun_app$b (fun_app$c less_eq$ ?v0) ?v2)) (fun_app$b (fun_app$c less_eq$ ?v0) (fun_app$ (fun_app$a inf$ ?v1) ?v2))) ))
(assert (forall ((?v0 Enat$) (?v1 Enat$) (?v2 Enat$)) (=> (and (fun_app$b (fun_app$c less_eq$ ?v0) ?v1) (fun_app$b (fun_app$c less_eq$ ?v0) ?v2)) (fun_app$b (fun_app$c less_eq$ ?v0) (fun_app$ (fun_app$a inf$ ?v1) ?v2))) ))
(assert (forall ((?v0 Enat$) (?v1 Enat$) (?v2 Enat$)) (=> (and (fun_app$b (fun_app$c less_eq$ ?v0) ?v1) (fun_app$b (fun_app$c less_eq$ ?v0) ?v2)) (fun_app$b (fun_app$c less_eq$ ?v0) (fun_app$ (fun_app$a inf$ ?v1) ?v2))) ))
(assert (forall ((?v0 Enat$) (?v1 Enat$)) (! (=> (fun_app$b (fun_app$c less_eq$ ?v0) ?v1) (= (fun_app$ (fun_app$a inf$ ?v1) ?v0) ?v0)) :pattern ((fun_app$ (fun_app$a inf$ ?v1) ?v0)))))
(assert (forall ((?v0 Enat$) (?v1 Enat$)) (! (=> (fun_app$b (fun_app$c less_eq$ ?v0) ?v1) (= (fun_app$ (fun_app$a inf$ ?v0) ?v1) ?v0)) :pattern ((fun_app$ (fun_app$a inf$ ?v0) ?v1)))))
(assert (forall ((?v0 Enat$) (?v1 Enat$)) (! (=> (fun_app$b (fun_app$c less_eq$ ?v0) ?v1) (= (fun_app$ (fun_app$a inf$ ?v1) ?v0) ?v0)) :pattern ((fun_app$ (fun_app$a inf$ ?v1) ?v0)))))
(assert (forall ((?v0 Enat$) (?v1 Enat$)) (! (=> (fun_app$b (fun_app$c less_eq$ ?v0) ?v1) (= (fun_app$ (fun_app$a inf$ ?v0) ?v1) ?v0)) :pattern ((fun_app$ (fun_app$a inf$ ?v0) ?v1)))))
(assert (forall ((?v0 Enat$) (?v1 Enat$) (?v2 Enat$)) (=> (fun_app$b (fun_app$c less_eq$ ?v0) ?v1) (fun_app$b (fun_app$c less_eq$ (fun_app$ (fun_app$a inf$ ?v2) ?v0)) ?v1)) ))
(assert (forall ((?v0 Enat$) (?v1 Enat$) (?v2 Enat$)) (=> (fun_app$b (fun_app$c less_eq$ ?v0) ?v1) (fun_app$b (fun_app$c less_eq$ (fun_app$ (fun_app$a inf$ ?v0) ?v2)) ?v1)) ))
(assert (forall ((?v0 Enat$) (?v1 Enat$) (?v2 Enat$)) (=> (fun_app$b (fun_app$c less_eq$ ?v0) ?v1) (fun_app$b (fun_app$c less_eq$ (fun_app$ (fun_app$a inf$ ?v2) ?v0)) ?v1)) ))
(assert (forall ((?v0 Enat$) (?v1 Enat$) (?v2 Enat$)) (=> (fun_app$b (fun_app$c less_eq$ ?v0) ?v1) (fun_app$b (fun_app$c less_eq$ (fun_app$ (fun_app$a inf$ ?v0) ?v2)) ?v1)) ))
(assert (forall ((?v0 Enat$) (?v1 Enat$)) (fun_app$b (fun_app$c less_eq$ (fun_app$ (fun_app$a inf$ ?v0) ?v1)) ?v1) ))
(assert (forall ((?v0 Enat$) (?v1 Enat$)) (fun_app$b (fun_app$c less_eq$ (fun_app$ (fun_app$a inf$ ?v0) ?v1)) ?v0) ))
(assert (forall ((?v0 Enat$) (?v1 Enat$)) (fun_app$b (fun_app$c less_eq$ (fun_app$ (fun_app$a inf$ ?v0) ?v1)) ?v1) ))
(assert (forall ((?v0 Enat$) (?v1 Enat$)) (fun_app$b (fun_app$c less_eq$ (fun_app$ (fun_app$a inf$ ?v0) ?v1)) ?v0) ))
(assert (forall ((?v0 Enat$) (?v1 Enat$)) (fun_app$b (fun_app$c less_eq$ (fun_app$ (fun_app$a inf$ ?v0) ?v1)) ?v0) ))
(assert (forall ((?v0 Enat$) (?v1 Enat$)) (fun_app$b (fun_app$c less_eq$ (fun_app$ (fun_app$a inf$ ?v0) ?v1)) ?v1) ))
(assert (forall ((?v0 Enat_enat_enat_fun_fun$)) (=> (abel_semigroup$ ?v0) (semigroup$ ?v0)) ))
(assert (forall ((?v0 Enat$)) (fun_app$b (fun_app$c less_eq$ ?v0) ?v0) ))
(assert (= inf$ min$))
(assert (forall ((?v0 Enat$) (?v1 Enat$)) (=> (fun_app$b (fun_app$c less_eq$ ?v0) ?v1) (= (fun_app$ (fun_app$a min$ ?v0) ?v1) ?v0)) ))
(assert (forall ((?v0 Enat$) (?v1 Enat$)) (=> (fun_app$b (fun_app$c less_eq$ ?v0) ?v1) (= (fun_app$ (fun_app$a min$ ?v1) ?v0) ?v0)) ))
(assert (forall ((?v0 Enat$) (?v1 Enat$)) (= (fun_app$ (fun_app$a min$ ?v0) ?v1) (ite (fun_app$b (fun_app$c less_eq$ ?v0) ?v1) ?v0 ?v1)) ))
(assert (forall ((?v0 Enat$)) (fun_app$b (fun_app$c less_eq$ ?v0) top$) ))
(assert (forall ((?v0 Enat$)) (=> (fun_app$b (fun_app$c less_eq$ top$) ?v0) (= ?v0 top$)) ))
(assert (forall ((?v0 Enat$) (?v1 Enat$)) (= (= ?v0 ?v1) (and (fun_app$b (fun_app$c less_eq$ ?v0) ?v1) (fun_app$b (fun_app$c less_eq$ ?v1) ?v0))) ))
(assert (forall ((?v0 Enat$) (?v1 Enat$)) (=> (and (=> (fun_app$b (fun_app$c less_eq$ ?v0) ?v1) false) (=> (fun_app$b (fun_app$c less_eq$ ?v1) ?v0) false)) false) ))
(assert (forall ((?v0 Enat_enat_bool_fun_fun$) (?v1 Enat$) (?v2 Enat$)) (=> (and (forall ((?v3 Enat$) (?v4 Enat$)) (=> (fun_app$b (fun_app$c less_eq$ ?v3) ?v4) (fun_app$b (fun_app$c ?v0 ?v3) ?v4)) ) (forall ((?v3 Enat$) (?v4 Enat$)) (=> (fun_app$b (fun_app$c ?v0 ?v4) ?v3) (fun_app$b (fun_app$c ?v0 ?v3) ?v4)) )) (fun_app$b (fun_app$c ?v0 ?v1) ?v2)) ))
(assert (forall ((?v0 Enat$) (?v1 Enat_enat_fun$) (?v2 Enat$) (?v3 Enat$)) (=> (and (= ?v0 (fun_app$ ?v1 ?v2)) (and (fun_app$b (fun_app$c less_eq$ ?v2) ?v3) (forall ((?v4 Enat$) (?v5 Enat$)) (=> (fun_app$b (fun_app$c less_eq$ ?v4) ?v5) (fun_app$b (fun_app$c less_eq$ (fun_app$ ?v1 ?v4)) (fun_app$ ?v1 ?v5))) ))) (fun_app$b (fun_app$c less_eq$ ?v0) (fun_app$ ?v1 ?v3))) ))
(assert (forall ((?v0 Enat$) (?v1 Enat$) (?v2 Enat$)) (=> (and (= ?v0 ?v1) (fun_app$b (fun_app$c less_eq$ ?v1) ?v2)) (fun_app$b (fun_app$c less_eq$ ?v0) ?v2)) ))
(assert (forall ((?v0 Enat$) (?v1 Enat$)) (=> (= ?v0 ?v1) (fun_app$b (fun_app$c less_eq$ ?v0) ?v1)) ))
(assert (forall ((?v0 Enat$) (?v1 Enat$) (?v2 Enat_enat_fun$) (?v3 Enat$)) (=> (and (fun_app$b (fun_app$c less_eq$ ?v0) ?v1) (and (= (fun_app$ ?v2 ?v1) ?v3) (forall ((?v4 Enat$) (?v5 Enat$)) (=> (fun_app$b (fun_app$c less_eq$ ?v4) ?v5) (fun_app$b (fun_app$c less_eq$ (fun_app$ ?v2 ?v4)) (fun_app$ ?v2 ?v5))) ))) (fun_app$b (fun_app$c less_eq$ (fun_app$ ?v2 ?v0)) ?v3)) ))
(assert (forall ((?v0 Enat$) (?v1 Enat$) (?v2 Enat$)) (=> (and (fun_app$b (fun_app$c less_eq$ ?v0) ?v1) (= ?v1 ?v2)) (fun_app$b (fun_app$c less_eq$ ?v0) ?v2)) ))
(assert (forall ((?v0 Enat$) (?v1 Enat$) (?v2 Enat_enat_fun$) (?v3 Enat$)) (=> (and (fun_app$b (fun_app$c less_eq$ ?v0) ?v1) (and (fun_app$b (fun_app$c less_eq$ (fun_app$ ?v2 ?v1)) ?v3) (forall ((?v4 Enat$) (?v5 Enat$)) (=> (fun_app$b (fun_app$c less_eq$ ?v4) ?v5) (fun_app$b (fun_app$c less_eq$ (fun_app$ ?v2 ?v4)) (fun_app$ ?v2 ?v5))) ))) (fun_app$b (fun_app$c less_eq$ (fun_app$ ?v2 ?v0)) ?v3)) ))
(assert (forall ((?v0 Enat$) (?v1 Enat_enat_fun$) (?v2 Enat$) (?v3 Enat$)) (=> (and (fun_app$b (fun_app$c less_eq$ ?v0) (fun_app$ ?v1 ?v2)) (and (fun_app$b (fun_app$c less_eq$ ?v2) ?v3) (forall ((?v4 Enat$) (?v5 Enat$)) (=> (fun_app$b (fun_app$c less_eq$ ?v4) ?v5) (fun_app$b (fun_app$c less_eq$ (fun_app$ ?v1 ?v4)) (fun_app$ ?v1 ?v5))) ))) (fun_app$b (fun_app$c less_eq$ ?v0) (fun_app$ ?v1 ?v3))) ))
(assert (forall ((?v0 Enat$) (?v1 Enat$)) (=> (and (fun_app$b (fun_app$c less_eq$ ?v0) ?v1) (fun_app$b (fun_app$c less_eq$ ?v1) ?v0)) (= ?v1 ?v0)) ))
(assert (forall ((?v0 Enat$) (?v1 Enat$)) (=> (and (fun_app$b (fun_app$c less_eq$ ?v0) ?v1) (fun_app$b (fun_app$c less_eq$ ?v1) ?v0)) (= ?v0 ?v1)) ))
(assert (forall ((?v0 Enat$) (?v1 Enat$)) (=> (and (fun_app$b (fun_app$c less_eq$ ?v0) ?v1) (fun_app$b (fun_app$c less_eq$ ?v1) ?v0)) (= ?v0 ?v1)) ))
(assert (forall ((?v0 Enat$) (?v1 Enat$) (?v2 Enat$)) (=> (and (fun_app$b (fun_app$c less_eq$ ?v0) ?v1) (fun_app$b (fun_app$c less_eq$ ?v2) ?v0)) (fun_app$b (fun_app$c less_eq$ ?v2) ?v1)) ))
(assert (forall ((?v0 Enat$) (?v1 Enat$) (?v2 Enat$)) (=> (and (fun_app$b (fun_app$c less_eq$ ?v0) ?v1) (fun_app$b (fun_app$c less_eq$ ?v1) ?v2)) (fun_app$b (fun_app$c less_eq$ ?v0) ?v2)) ))
(assert (forall ((?v0 Enat$) (?v1 Enat$) (?v2 Enat$)) (=> (and (fun_app$b (fun_app$c less_eq$ ?v0) ?v1) (fun_app$b (fun_app$c less_eq$ ?v1) ?v2)) (fun_app$b (fun_app$c less_eq$ ?v0) ?v2)) ))
(assert (forall ((?v0 Enat$) (?v1 Enat$)) (! (=> (fun_app$b (fun_app$c less_eq$ ?v0) ?v1) (= (fun_app$b (fun_app$c less_eq$ ?v1) ?v0) (= ?v1 ?v0))) :pattern ((fun_app$b (fun_app$c less_eq$ ?v1) ?v0)))))
(assert (forall ((?v0 Enat$) (?v1 Enat$)) (or (fun_app$b (fun_app$c less_eq$ ?v0) ?v1) (fun_app$b (fun_app$c less_eq$ ?v1) ?v0)) ))
(assert (forall ((?v0 Enat$)) (fun_app$b (fun_app$c less_eq$ ?v0) ?v0) ))
(assert (forall ((?v0 Enat_enat_enat_fun_fun$) (?v1 Enat$) (?v2 Enat$) (?v3 Enat$)) (=> (abel_semigroup$ ?v0) (= (fun_app$ (fun_app$a ?v0 ?v1) (fun_app$ (fun_app$a ?v0 ?v2) ?v3)) (fun_app$ (fun_app$a ?v0 ?v2) (fun_app$ (fun_app$a ?v0 ?v1) ?v3)))) ))
(assert (forall ((?v0 Enat_enat_enat_fun_fun$) (?v1 Enat$) (?v2 Enat$)) (=> (abel_semigroup$ ?v0) (= (fun_app$ (fun_app$a ?v0 ?v1) ?v2) (fun_app$ (fun_app$a ?v0 ?v2) ?v1))) ))
(assert (forall ((?v0 Enat_enat_enat_fun_fun$)) (= (semigroup$ ?v0) (forall ((?v1 Enat$) (?v2 Enat$) (?v3 Enat$)) (= (fun_app$ (fun_app$a ?v0 (fun_app$ (fun_app$a ?v0 ?v1) ?v2)) ?v3) (fun_app$ (fun_app$a ?v0 ?v1) (fun_app$ (fun_app$a ?v0 ?v2) ?v3))) )) ))
(assert (forall ((?v0 Enat_enat_enat_fun_fun$)) (=> (forall ((?v1 Enat$) (?v2 Enat$) (?v3 Enat$)) (= (fun_app$ (fun_app$a ?v0 (fun_app$ (fun_app$a ?v0 ?v1) ?v2)) ?v3) (fun_app$ (fun_app$a ?v0 ?v1) (fun_app$ (fun_app$a ?v0 ?v2) ?v3))) ) (semigroup$ ?v0)) ))
(assert (forall ((?v0 Enat_enat_enat_fun_fun$) (?v1 Enat$) (?v2 Enat$) (?v3 Enat$)) (=> (semigroup$ ?v0) (= (fun_app$ (fun_app$a ?v0 (fun_app$ (fun_app$a ?v0 ?v1) ?v2)) ?v3) (fun_app$ (fun_app$a ?v0 ?v1) (fun_app$ (fun_app$a ?v0 ?v2) ?v3)))) ))
(assert (forall ((?v0 Enat$)) (= (fun_app$b (fun_app$c less_eq$ top$) ?v0) (= ?v0 top$)) ))
(assert (forall ((?v0 Enat_enat_enat_fun_fun$)) (! (= (abel_semigroup$ ?v0) (and (semigroup$ ?v0) (abel_semigroup_axioms$ ?v0))) :pattern ((abel_semigroup$ ?v0)))))
(assert (forall ((?v0 Enat_enat_enat_fun_fun$)) (=> (and (semigroup$ ?v0) (abel_semigroup_axioms$ ?v0)) (abel_semigroup$ ?v0)) ))
(assert (forall ((?v0 Enat_enat_enat_fun_fun$)) (=> (and (abel_semigroup$ ?v0) (semilattice_axioms$ ?v0)) (semilattice$ ?v0)) ))
(assert (forall ((?v0 Enat_enat_enat_fun_fun$)) (! (= (semilattice$ ?v0) (and (abel_semigroup$ ?v0) (semilattice_axioms$ ?v0))) :pattern ((semilattice$ ?v0)))))
(assert (forall ((?v0 Enat_enat_enat_fun_fun$)) (=> (abel_semigroup$ ?v0) (abel_semigroup_axioms$ ?v0)) ))
(assert (forall ((?v0 Enat_enat_enat_fun_fun$)) (= (abel_semigroup_axioms$ ?v0) (forall ((?v1 Enat$) (?v2 Enat$)) (= (fun_app$ (fun_app$a ?v0 ?v1) ?v2) (fun_app$ (fun_app$a ?v0 ?v2) ?v1)) )) ))
(assert (forall ((?v0 Enat_enat_enat_fun_fun$)) (=> (forall ((?v1 Enat$) (?v2 Enat$)) (= (fun_app$ (fun_app$a ?v0 ?v1) ?v2) (fun_app$ (fun_app$a ?v0 ?v2) ?v1)) ) (abel_semigroup_axioms$ ?v0)) ))
(assert (forall ((?v0 Enat_enat_enat_fun_fun$)) (= (semilattice_axioms$ ?v0) (forall ((?v1 Enat$)) (= (fun_app$ (fun_app$a ?v0 ?v1) ?v1) ?v1) )) ))
(assert (forall ((?v0 Enat_enat_enat_fun_fun$)) (=> (forall ((?v1 Enat$)) (= (fun_app$ (fun_app$a ?v0 ?v1) ?v1) ?v1) ) (semilattice_axioms$ ?v0)) ))
(assert (forall ((?v0 Enat_enat_enat_fun_fun$)) (=> (semilattice$ ?v0) (semilattice_axioms$ ?v0)) ))
(assert (semilattice_neutr$ inf$ top$))
(assert (monoid$ inf$ top$))
(assert (forall ((?v0 Enat$)) (fun_app$b (fun_app$c less_eq$ ?v0) ?v0) ))
(assert (forall ((?v0 Enat$) (?v1 Enat$) (?v2 Enat$)) (=> (and (fun_app$b (fun_app$c less_eq$ ?v0) ?v1) (fun_app$b (fun_app$c less_eq$ ?v2) ?v0)) (fun_app$b (fun_app$c less_eq$ ?v2) ?v1)) ))
(assert (forall ((?v0 Enat_enat_enat_fun_fun$) (?v1 Enat$) (?v2 Enat$)) (=> (monoid$ ?v0 ?v1) (= (fun_app$ (fun_app$a ?v0 ?v1) ?v2) ?v2)) ))
(assert (forall ((?v0 Enat_enat_enat_fun_fun$) (?v1 Enat$) (?v2 Enat$)) (=> (monoid$ ?v0 ?v1) (= (fun_app$ (fun_app$a ?v0 ?v2) ?v1) ?v2)) ))
(assert (forall ((?v0 Enat_enat_enat_fun_fun$) (?v1 Enat$)) (=> (monoid$ ?v0 ?v1) (semigroup$ ?v0)) ))
(assert (forall ((?v0 Enat_enat_enat_fun_fun$) (?v1 Enat$)) (=> (semilattice_neutr$ ?v0 ?v1) (semilattice$ ?v0)) ))
(assert (forall ((?v0 Enat$) (?v1 Enat$)) (=> (and (fun_app$b (fun_app$c less_eq$ ?v0) ?v1) (fun_app$b (fun_app$c less_eq$ ?v1) ?v0)) (= ?v0 ?v1)) ))
(assert (forall ((?v0 Enat$) (?v1 Enat$)) (=> (and (fun_app$b (fun_app$c less_eq$ ?v0) ?v1) (fun_app$b (fun_app$c less_eq$ ?v1) ?v0)) (= ?v1 ?v0)) ))
(assert (forall ((?v0 Enat$) (?v1 Enat$) (?v2 Enat$)) (=> (and (fun_app$b (fun_app$c less_eq$ ?v0) ?v1) (fun_app$b (fun_app$c less_eq$ ?v1) ?v2)) (fun_app$b (fun_app$c less_eq$ ?v0) ?v2)) ))
(assert (forall ((?v0 Enat_enat_enat_fun_fun$) (?v1 Enat$)) (=> (and (semigroup$ ?v0) (monoid_axioms$ ?v0 ?v1)) (monoid$ ?v0 ?v1)) ))
(assert (forall ((?v0 Enat_enat_enat_fun_fun$) (?v1 Enat$)) (! (= (monoid$ ?v0 ?v1) (and (semigroup$ ?v0) (monoid_axioms$ ?v0 ?v1))) :pattern ((monoid$ ?v0 ?v1)))))
(assert (forall ((?v0 Enat_enat_enat_fun_fun$) (?v1 Enat$)) (! (= (semilattice_neutr$ ?v0 ?v1) (and (semilattice$ ?v0) (comm_monoid$ ?v0 ?v1))) :pattern ((semilattice_neutr$ ?v0 ?v1)))))
(assert (forall ((?v0 Enat_enat_enat_fun_fun$) (?v1 Enat$)) (= (monoid_axioms$ ?v0 ?v1) (and (forall ((?v2 Enat$)) (= (fun_app$ (fun_app$a ?v0 ?v1) ?v2) ?v2) ) (forall ((?v2 Enat$)) (= (fun_app$ (fun_app$a ?v0 ?v2) ?v1) ?v2) ))) ))
(assert (forall ((?v0 Enat_enat_enat_fun_fun$) (?v1 Enat$)) (=> (and (forall ((?v2 Enat$)) (= (fun_app$ (fun_app$a ?v0 ?v1) ?v2) ?v2) ) (forall ((?v2 Enat$)) (= (fun_app$ (fun_app$a ?v0 ?v2) ?v1) ?v2) )) (monoid_axioms$ ?v0 ?v1)) ))
(assert (forall ((?v0 Enat_enat_enat_fun_fun$) (?v1 Enat$) (?v2 Enat$)) (=> (comm_monoid$ ?v0 ?v1) (= (fun_app$ (fun_app$a ?v0 ?v2) ?v1) ?v2)) ))
(assert (forall ((?v0 Enat_enat_enat_fun_fun$) (?v1 Enat$)) (=> (comm_monoid$ ?v0 ?v1) (abel_semigroup$ ?v0)) ))
(assert (forall ((?v0 Enat_enat_enat_fun_fun$) (?v1 Enat$)) (=> (semilattice_neutr$ ?v0 ?v1) (comm_monoid$ ?v0 ?v1)) ))
(assert (comm_monoid$ inf$ top$))
(assert (forall ((?v0 Enat_enat_enat_fun_fun$) (?v1 Enat$)) (=> (monoid$ ?v0 ?v1) (monoid_axioms$ ?v0 ?v1)) ))
(assert (forall ((?v0 Enat_enat_enat_fun_fun$) (?v1 Enat$)) (=> (and (semilattice$ ?v0) (comm_monoid$ ?v0 ?v1)) (semilattice_neutr$ ?v0 ?v1)) ))
(assert (forall ((?v0 Enat_enat_enat_fun_fun$) (?v1 Enat$)) (! (= (comm_monoid$ ?v0 ?v1) (and (abel_semigroup$ ?v0) (comm_monoid_axioms$ ?v0 ?v1))) :pattern ((comm_monoid$ ?v0 ?v1)))))
(assert (forall ((?v0 Enat_enat_enat_fun_fun$) (?v1 Enat$)) (=> (and (abel_semigroup$ ?v0) (comm_monoid_axioms$ ?v0 ?v1)) (comm_monoid$ ?v0 ?v1)) ))
(assert (forall ((?v0 Enat_enat_enat_fun_fun$) (?v1 Enat$)) (=> (comm_monoid$ ?v0 ?v1) (comm_monoid_axioms$ ?v0 ?v1)) ))
(assert (forall ((?v0 Enat_enat_enat_fun_fun$) (?v1 Enat$)) (=> (forall ((?v2 Enat$)) (= (fun_app$ (fun_app$a ?v0 ?v2) ?v1) ?v2) ) (comm_monoid_axioms$ ?v0 ?v1)) ))
(assert (forall ((?v0 Enat_enat_enat_fun_fun$) (?v1 Enat$)) (= (comm_monoid_axioms$ ?v0 ?v1) (forall ((?v2 Enat$)) (= (fun_app$ (fun_app$a ?v0 ?v2) ?v1) ?v2) )) ))
(assert (forall ((?v0 Enat_enat_bool_fun_fun$) (?v1 Enat$) (?v2 Enat$)) (=> (and (forall ((?v3 Enat$) (?v4 Enat$)) (=> (fun_app$b (fun_app$c less_eq$ ?v3) ?v4) (fun_app$b (fun_app$c ?v0 ?v3) ?v4)) ) (=> (fun_app$b (fun_app$c ?v0 ?v1) ?v2) (fun_app$b (fun_app$c ?v0 ?v2) ?v1))) (fun_app$b (fun_app$c ?v0 ?v2) ?v1)) ))
(assert (forall ((?v0 Enat_enat_enat_fun_fun$) (?v1 Enat$) (?v2 Enat_enat_bool_fun_fun$) (?v3 Enat_enat_bool_fun_fun$)) (=> (semilattice_neutr_order$ ?v0 ?v1 ?v2 ?v3) (semilattice_neutr$ ?v0 ?v1)) ))
(assert (forall ((?v0 Enat$) (?v1 Enat$) (?v2 Enat$)) (= (fun_app$b (fun_app$c less_eq$ (fun_app$ (fun_app$a plus$ ?v0) ?v1)) (fun_app$ (fun_app$a plus$ ?v0) ?v2)) (or (= ?v0 infinity$) (fun_app$b (fun_app$c less_eq$ ?v1) ?v2))) ))
(assert (forall ((?v0 Enat$)) (! (= (fun_app$ (fun_app$a plus$ infinity$) ?v0) infinity$) :pattern ((fun_app$ (fun_app$a plus$ infinity$) ?v0)))))
(assert (forall ((?v0 Enat$)) (! (= (fun_app$ (fun_app$a plus$ ?v0) infinity$) infinity$) :pattern ((fun_app$a plus$ ?v0)))))
(assert (forall ((?v0 Enat$) (?v1 Enat$) (?v2 Enat$)) (= (fun_app$ (fun_app$a plus$ (fun_app$ (fun_app$a plus$ ?v0) ?v1)) ?v2) (fun_app$ (fun_app$a plus$ ?v0) (fun_app$ (fun_app$a plus$ ?v1) ?v2))) ))
(assert (forall ((?v0 Enat$) (?v1 Enat$) (?v2 Enat$)) (= (fun_app$ (fun_app$a plus$ (fun_app$ (fun_app$a plus$ ?v0) ?v1)) ?v2) (fun_app$ (fun_app$a plus$ ?v0) (fun_app$ (fun_app$a plus$ ?v1) ?v2))) ))
(assert (forall ((?v0 Enat$) (?v1 Enat$) (?v2 Enat$)) (= (fun_app$ (fun_app$a plus$ ?v0) (fun_app$ (fun_app$a plus$ ?v1) ?v2)) (fun_app$ (fun_app$a plus$ ?v1) (fun_app$ (fun_app$a plus$ ?v0) ?v2))) ))
(assert (forall ((?v0 Enat$) (?v1 Enat$)) (= (fun_app$ (fun_app$a plus$ ?v0) ?v1) (fun_app$ (fun_app$a plus$ ?v1) ?v0)) ))
(assert (forall ((?v0 Enat$) (?v1 Enat$) (?v2 Enat$) (?v3 Enat$)) (=> (and (= ?v0 ?v1) (= ?v2 ?v3)) (= (fun_app$ (fun_app$a plus$ ?v0) ?v2) (fun_app$ (fun_app$a plus$ ?v1) ?v3))) ))
(assert (semigroup$ plus$))
(assert (abel_semigroup$ plus$))
(assert (forall ((?v0 Enat$) (?v1 Enat$) (?v2 Enat$)) (= (= (fun_app$ (fun_app$a plus$ ?v0) ?v1) (fun_app$ (fun_app$a plus$ ?v0) ?v2)) (or (= ?v0 infinity$) (= ?v1 ?v2))) ))
(assert (forall ((?v0 Enat$) (?v1 Enat$) (?v2 Enat$) (?v3 Enat$)) (=> (and (= ?v0 ?v1) (fun_app$b (fun_app$c less_eq$ ?v2) ?v3)) (fun_app$b (fun_app$c less_eq$ (fun_app$ (fun_app$a plus$ ?v0) ?v2)) (fun_app$ (fun_app$a plus$ ?v1) ?v3))) ))
(assert (forall ((?v0 Enat$) (?v1 Enat$) (?v2 Enat$) (?v3 Enat$)) (=> (and (fun_app$b (fun_app$c less_eq$ ?v0) ?v1) (= ?v2 ?v3)) (fun_app$b (fun_app$c less_eq$ (fun_app$ (fun_app$a plus$ ?v0) ?v2)) (fun_app$ (fun_app$a plus$ ?v1) ?v3))) ))
(assert (forall ((?v0 Enat$) (?v1 Enat$) (?v2 Enat$) (?v3 Enat$)) (=> (and (fun_app$b (fun_app$c less_eq$ ?v0) ?v1) (fun_app$b (fun_app$c less_eq$ ?v2) ?v3)) (fun_app$b (fun_app$c less_eq$ (fun_app$ (fun_app$a plus$ ?v0) ?v2)) (fun_app$ (fun_app$a plus$ ?v1) ?v3))) ))
(assert (forall ((?v0 Enat$) (?v1 Enat$) (?v2 Enat$) (?v3 Enat$)) (=> (and (fun_app$b (fun_app$c less_eq$ ?v0) ?v1) (fun_app$b (fun_app$c less_eq$ ?v2) ?v3)) (fun_app$b (fun_app$c less_eq$ (fun_app$ (fun_app$a plus$ ?v0) ?v2)) (fun_app$ (fun_app$a plus$ ?v1) ?v3))) ))
(assert (forall ((?v0 Enat$) (?v1 Enat$) (?v2 Enat$)) (=> (fun_app$b (fun_app$c less_eq$ ?v0) ?v1) (fun_app$b (fun_app$c less_eq$ (fun_app$ (fun_app$a plus$ ?v0) ?v2)) (fun_app$ (fun_app$a plus$ ?v1) ?v2))) ))
(assert (forall ((?v0 Enat$) (?v1 Enat$) (?v2 Enat$)) (=> (fun_app$b (fun_app$c less_eq$ ?v0) ?v1) (fun_app$b (fun_app$c less_eq$ (fun_app$ (fun_app$a plus$ ?v2) ?v0)) (fun_app$ (fun_app$a plus$ ?v2) ?v1))) ))
(assert (forall ((?v0 Enat$) (?v1 Enat$)) (fun_app$b (fun_app$c less_eq$ ?v0) (fun_app$ (fun_app$a plus$ ?v0) ?v1)) ))
(assert (forall ((?v0 Enat$) (?v1 Enat$)) (fun_app$b (fun_app$c less_eq$ ?v0) (fun_app$ (fun_app$a plus$ ?v1) ?v0)) ))
(assert (semilattice_neutr_order$ inf$ top$ less_eq$ less$))
(assert (forall ((?v0 Enat$)) (! (= (fun_app$b (fun_app$c less$ ?v0) infinity$) (not (= ?v0 infinity$))) :pattern ((fun_app$c less$ ?v0)))))
(assert (forall ((?v0 Enat$)) (! (= (fun_app$b (fun_app$c less$ infinity$) ?v0) false) :pattern ((fun_app$b (fun_app$c less$ infinity$) ?v0)))))
(assert (forall ((?v0 Enat$) (?v1 Enat$) (?v2 Enat$)) (= (fun_app$b (fun_app$c less$ ?v0) (fun_app$ (fun_app$a min$ ?v1) ?v2)) (and (fun_app$b (fun_app$c less$ ?v0) ?v1) (fun_app$b (fun_app$c less$ ?v0) ?v2))) ))
(assert (forall ((?v0 Enat$) (?v1 Enat$)) (or (fun_app$b (fun_app$c less_eq$ ?v0) ?v1) (fun_app$b (fun_app$c less$ ?v1) ?v0)) ))
(assert (forall ((?v0 Enat$) (?v1 Enat$)) (=> (not (fun_app$b (fun_app$c less_eq$ ?v0) ?v1)) (fun_app$b (fun_app$c less$ ?v1) ?v0)) ))
(assert (forall ((?v0 Enat$) (?v1 Enat$)) (=> (not (fun_app$b (fun_app$c less$ ?v0) ?v1)) (fun_app$b (fun_app$c less_eq$ ?v1) ?v0)) ))
(assert (forall ((?v0 Enat$) (?v1 Enat$)) (! (=> (not (fun_app$b (fun_app$c less$ ?v0) ?v1)) (= (fun_app$b (fun_app$c less_eq$ ?v0) ?v1) (= ?v0 ?v1))) :pattern ((fun_app$b (fun_app$c less_eq$ ?v0) ?v1)))))
(assert (forall ((?v0 Enat$) (?v1 Enat$)) (=> (and (not (= ?v0 ?v1)) (fun_app$b (fun_app$c less_eq$ ?v0) ?v1)) (fun_app$b (fun_app$c less$ ?v0) ?v1)) ))
(assert (forall ((?v0 Enat$) (?v1 Enat$)) (=> (fun_app$b (fun_app$c less_eq$ ?v0) ?v1) (not (fun_app$b (fun_app$c less$ ?v1) ?v0))) ))
(assert (forall ((?v0 Enat$) (?v1 Enat$)) (=> (fun_app$b (fun_app$c less_eq$ ?v0) ?v1) (or (fun_app$b (fun_app$c less$ ?v0) ?v1) (= ?v0 ?v1))) ))
(assert (forall ((?v0 Enat$) (?v1 Enat$)) (=> (fun_app$b (fun_app$c less_eq$ ?v0) ?v1) (= (not (fun_app$b (fun_app$c less$ ?v0) ?v1)) (= ?v0 ?v1))) ))
(assert (forall ((?v0 Enat$) (?v1 Enat$)) (=> (and (fun_app$b (fun_app$c less_eq$ ?v0) ?v1) (not (= ?v0 ?v1))) (fun_app$b (fun_app$c less$ ?v0) ?v1)) ))
(assert (forall ((?v0 Enat$) (?v1 Enat$) (?v2 Enat$)) (=> (and (fun_app$b (fun_app$c less_eq$ ?v0) ?v1) (fun_app$b (fun_app$c less$ ?v1) ?v2)) (fun_app$b (fun_app$c less$ ?v0) ?v2)) ))
(assert (forall ((?v0 Enat$) (?v1 Enat$) (?v2 Enat$)) (=> (and (fun_app$b (fun_app$c less_eq$ ?v0) ?v1) (fun_app$b (fun_app$c less$ ?v1) ?v2)) (fun_app$b (fun_app$c less$ ?v0) ?v2)) ))
(assert (forall ((?v0 Enat$) (?v1 Enat$) (?v2 Enat$)) (=> (and (fun_app$b (fun_app$c less_eq$ ?v0) ?v1) (fun_app$b (fun_app$c less$ ?v2) ?v0)) (fun_app$b (fun_app$c less$ ?v2) ?v1)) ))
(assert (forall ((?v0 Enat$) (?v1 Enat_enat_fun$) (?v2 Enat$) (?v3 Enat$)) (=> (and (fun_app$b (fun_app$c less_eq$ ?v0) (fun_app$ ?v1 ?v2)) (and (fun_app$b (fun_app$c less$ ?v2) ?v3) (forall ((?v4 Enat$) (?v5 Enat$)) (=> (fun_app$b (fun_app$c less$ ?v4) ?v5) (fun_app$b (fun_app$c less$ (fun_app$ ?v1 ?v4)) (fun_app$ ?v1 ?v5))) ))) (fun_app$b (fun_app$c less$ ?v0) (fun_app$ ?v1 ?v3))) ))
(assert (forall ((?v0 Enat$) (?v1 Enat$) (?v2 Enat_enat_fun$) (?v3 Enat$)) (=> (and (fun_app$b (fun_app$c less_eq$ ?v0) ?v1) (and (fun_app$b (fun_app$c less$ (fun_app$ ?v2 ?v1)) ?v3) (forall ((?v4 Enat$) (?v5 Enat$)) (=> (fun_app$b (fun_app$c less_eq$ ?v4) ?v5) (fun_app$b (fun_app$c less_eq$ (fun_app$ ?v2 ?v4)) (fun_app$ ?v2 ?v5))) ))) (fun_app$b (fun_app$c less$ (fun_app$ ?v2 ?v0)) ?v3)) ))
(assert (forall ((?v0 Enat$) (?v1 Enat$)) (=> (fun_app$b (fun_app$c less$ ?v0) ?v1) (fun_app$b (fun_app$c less_eq$ ?v0) ?v1)) ))
(assert (forall ((?v0 Enat$) (?v1 Enat$)) (=> (fun_app$b (fun_app$c less$ ?v0) ?v1) (fun_app$b (fun_app$c less_eq$ ?v0) ?v1)) ))
(assert (forall ((?v0 Enat$) (?v1 Enat$)) (=> (fun_app$b (fun_app$c less$ ?v0) ?v1) (fun_app$b (fun_app$c less_eq$ ?v0) ?v1)) ))
(assert (forall ((?v0 Enat$) (?v1 Enat$) (?v2 Enat$)) (=> (and (fun_app$b (fun_app$c less$ ?v0) ?v1) (fun_app$b (fun_app$c less_eq$ ?v1) ?v2)) (fun_app$b (fun_app$c less$ ?v0) ?v2)) ))
(assert (forall ((?v0 Enat$) (?v1 Enat$) (?v2 Enat$)) (=> (and (fun_app$b (fun_app$c less$ ?v0) ?v1) (fun_app$b (fun_app$c less_eq$ ?v1) ?v2)) (fun_app$b (fun_app$c less$ ?v0) ?v2)) ))
(assert (forall ((?v0 Enat$) (?v1 Enat$) (?v2 Enat$)) (=> (and (fun_app$b (fun_app$c less$ ?v0) ?v1) (fun_app$b (fun_app$c less_eq$ ?v2) ?v0)) (fun_app$b (fun_app$c less$ ?v2) ?v1)) ))
(assert (forall ((?v0 Enat$) (?v1 Enat_enat_fun$) (?v2 Enat$) (?v3 Enat$)) (=> (and (fun_app$b (fun_app$c less$ ?v0) (fun_app$ ?v1 ?v2)) (and (fun_app$b (fun_app$c less_eq$ ?v2) ?v3) (forall ((?v4 Enat$) (?v5 Enat$)) (=> (fun_app$b (fun_app$c less_eq$ ?v4) ?v5) (fun_app$b (fun_app$c less_eq$ (fun_app$ ?v1 ?v4)) (fun_app$ ?v1 ?v5))) ))) (fun_app$b (fun_app$c less$ ?v0) (fun_app$ ?v1 ?v3))) ))
(assert (forall ((?v0 Enat$) (?v1 Enat$) (?v2 Enat_enat_fun$) (?v3 Enat$)) (=> (and (fun_app$b (fun_app$c less$ ?v0) ?v1) (and (fun_app$b (fun_app$c less_eq$ (fun_app$ ?v2 ?v1)) ?v3) (forall ((?v4 Enat$) (?v5 Enat$)) (=> (fun_app$b (fun_app$c less$ ?v4) ?v5) (fun_app$b (fun_app$c less$ (fun_app$ ?v2 ?v4)) (fun_app$ ?v2 ?v5))) ))) (fun_app$b (fun_app$c less$ (fun_app$ ?v2 ?v0)) ?v3)) ))
(assert (forall ((?v0 Enat$) (?v1 Enat$)) (= (not (fun_app$b (fun_app$c less_eq$ ?v0) ?v1)) (fun_app$b (fun_app$c less$ ?v1) ?v0)) ))
(assert (forall ((?v0 Enat$) (?v1 Enat$)) (= (not (fun_app$b (fun_app$c less$ ?v0) ?v1)) (fun_app$b (fun_app$c less_eq$ ?v1) ?v0)) ))
(assert (forall ((?v0 Enat$) (?v1 Enat$)) (! (= (fun_app$b (fun_app$c less_eq$ ?v0) ?v1) (or (fun_app$b (fun_app$c less$ ?v0) ?v1) (= ?v0 ?v1))) :pattern ((fun_app$b (fun_app$c less_eq$ ?v0) ?v1)))))
(assert (forall ((?v0 Enat$) (?v1 Enat$)) (! (= (fun_app$b (fun_app$c less_eq$ ?v0) ?v1) (or (fun_app$b (fun_app$c less$ ?v0) ?v1) (= ?v0 ?v1))) :pattern ((fun_app$b (fun_app$c less_eq$ ?v0) ?v1)))))
(assert (forall ((?v0 Enat$) (?v1 Enat$)) (! (= (fun_app$b (fun_app$c less_eq$ ?v0) ?v1) (or (fun_app$b (fun_app$c less$ ?v0) ?v1) (= ?v1 ?v0))) :pattern ((fun_app$b (fun_app$c less_eq$ ?v0) ?v1)))))
(assert (forall ((?v0 Enat$) (?v1 Enat$)) (! (= (fun_app$b (fun_app$c less$ ?v0) ?v1) (and (fun_app$b (fun_app$c less_eq$ ?v0) ?v1) (not (fun_app$b (fun_app$c less_eq$ ?v1) ?v0)))) :pattern ((fun_app$b (fun_app$c less$ ?v0) ?v1)))))
(assert (forall ((?v0 Enat$) (?v1 Enat$)) (! (= (fun_app$b (fun_app$c less$ ?v0) ?v1) (and (fun_app$b (fun_app$c less_eq$ ?v0) ?v1) (not (= ?v0 ?v1)))) :pattern ((fun_app$b (fun_app$c less$ ?v0) ?v1)))))
(assert (forall ((?v0 Enat$) (?v1 Enat$)) (! (= (fun_app$b (fun_app$c less$ ?v0) ?v1) (and (fun_app$b (fun_app$c less_eq$ ?v0) ?v1) (not (= ?v0 ?v1)))) :pattern ((fun_app$b (fun_app$c less$ ?v0) ?v1)))))
(assert (forall ((?v0 Enat$) (?v1 Enat$)) (! (= (fun_app$b (fun_app$c less$ ?v0) ?v1) (and (fun_app$b (fun_app$c less_eq$ ?v0) ?v1) (not (= ?v1 ?v0)))) :pattern ((fun_app$b (fun_app$c less$ ?v0) ?v1)))))
(assert (forall ((?v0 Enat$) (?v1 Enat$) (?v2 Enat$)) (= (fun_app$b (fun_app$c less$ (fun_app$ (fun_app$a min$ ?v0) ?v1)) ?v2) (or (fun_app$b (fun_app$c less$ ?v0) ?v2) (fun_app$b (fun_app$c less$ ?v1) ?v2))) ))
(assert (forall ((?v0 Enat$) (?v1 Enat$)) (! (= (fun_app$b (fun_app$c less$ ?v0) ?v1) (and (= ?v0 (fun_app$ (fun_app$a min$ ?v0) ?v1)) (not (= ?v0 ?v1)))) :pattern ((fun_app$b (fun_app$c less$ ?v0) ?v1)))))
(assert (forall ((?v0 Enat$) (?v1 Enat$) (?v2 Enat$)) (=> (and (fun_app$b (fun_app$c less$ ?v0) (fun_app$ (fun_app$a min$ ?v1) ?v2)) (=> (and (fun_app$b (fun_app$c less$ ?v0) ?v1) (fun_app$b (fun_app$c less$ ?v0) ?v2)) false)) false) ))
(assert (forall ((?v0 Enat$) (?v1 Enat$) (?v2 Enat$)) (=> (fun_app$b (fun_app$c less$ ?v0) ?v1) (fun_app$b (fun_app$c less$ (fun_app$ (fun_app$a min$ ?v2) ?v0)) ?v1)) ))
(check-sat)
(exit)

